(set-logic ALL)
(set-option :produce-models true)
(define-fun-rec str.toLower ((x String)) String
  (ite (= x "")
      ""
      (let ((Head (str.at x 0)))
        (str.++ 
          (ite (and (<= 65 (str.to_code Head)) 
                     (<= (str.to_code Head) 90))
               (str.from_code (+ (str.to_code Head) 32))
               Head)
          (str.toLower (str.substr x 1 (- (str.len x) 1)))))))
(declare-fun sym2082 () String)
(declare-fun sym811 () String)
(declare-fun sym209 () String)
(declare-fun sym2508 () String)
(declare-fun sym2619 () String)
(declare-fun sym1869 () String)
(declare-fun sym1237 () String)
(declare-fun sym551 () String)
(declare-fun sym1024 () String)
(declare-fun sym1663 () String)
(declare-fun sym1450 () String)
(declare-fun sym2295 () String)
(declare-fun sym161 () String)

(assert (not (= (str.toLower (str.substr sym1663  0 1))"p" )))
(assert (not (= "" (str.toLower (str.substr sym2619  0 1)))))
(assert (not (= "" "n" )))
(assert (= (str.toLower (str.substr sym2295  0 1))"k" ))
(assert (= "" sym161 ))
(assert (not (= (str.toLower (str.substr sym1237  0 1))"q" )))
(assert (not (= (str.toLower (str.substr sym551  0 1))"q" )))
(assert (not (= "" sym2619 )))
(assert (= (str.toLower (str.substr sym209  0 1))"y" ))
(assert (not (= (str.toLower (str.substr sym2508  0 1))"q" )))
(assert (not (= (str.toLower (str.substr sym2508  0 1))"p" )))
(assert (not (= "" sym811 )))
(assert (= (str.toLower (str.substr sym551  0 1))"k" ))
(assert (= (str.toLower (str.substr sym811  0 1))"k" ))
(assert (not (= "y" "n" )))
(assert (not (= (str.toLower (str.substr sym1024  0 1))"p" )))
(assert (not (= "" sym2295 )))
(assert (not (= (str.toLower (str.substr sym1450  0 1))"q" )))
(assert (= "" "" ))
(assert (not (= (str.toLower (str.substr sym2295  0 1))"p" )))
(assert (= (str.toLower (str.substr sym2082  0 1))"k" ))
(assert (not (= (str.toLower (str.substr sym811  0 1))"p" )))
(assert (not (= "" sym1024 )))
(assert (not (= "" sym1237 )))
(assert (not (= "" sym1450 )))
(assert (not (= (str.toLower (str.substr sym2082  0 1))"p" )))
(assert (not (= "" (str.toLower (str.substr sym209  0 1)))))
(assert (not (= (str.toLower (str.substr sym551  0 1))"p" )))
(assert (not (= (str.toLower (str.substr sym1237  0 1))"p" )))
(assert (= (str.toLower (str.substr sym1237  0 1))"k" ))
(assert (not (= "" sym551 )))
(assert (= "y" "y" ))
(assert (= (str.toLower (str.substr sym2508  0 1))"k" ))
(assert (= (str.toLower (str.substr sym1869  0 1))"k" ))
(assert (not (= "" "y" )))
(assert (not (= (str.toLower (str.substr sym1869  0 1))"p" )))
(assert (not (= "" "q" )))
(assert (not (= "" sym1869 )))
(assert (= (str.toLower (str.substr sym1024  0 1))"k" ))
(assert (= (str.toLower (str.substr sym1450  0 1))"k" ))
(assert (not (= (str.toLower (str.substr sym1024  0 1))"q" )))
(assert (not (= (str.toLower (str.substr sym1663  0 1))"q" )))
(assert (= (str.toLower (str.substr sym1663  0 1))"k" ))
(assert (not (= "" sym1663 )))
(assert (not (= (str.toLower (str.substr sym1869  0 1))"q" )))
(assert (not (= (str.toLower (str.substr sym2619  0 1))"y" )))
(assert (not (= (str.toLower (str.substr sym2082  0 1))"q" )))
(assert (not (= "" sym2508 )))
(assert (not (= (str.toLower (str.substr sym2295  0 1))"q" )))
(assert (not (= (str.toLower (str.substr sym1450  0 1))"p" )))
(assert (not (= "" "y" )))
(assert (not (= (str.toLower (str.substr sym811  0 1))"q" )))
(assert (not (= "n" "y" )))
(assert (not (= "" sym209 )))
(assert (not (= "" sym2082 )))
(check-sat)
(get-model)
(exit)
